50 1225
1 2 711
1 3 810
1 4 414
1 5 316
1 6 896
1 7 244
1 8 1089
1 9 789
1 10 457
1 11 496
1 12 888
1 13 624
1 14 241
1 15 885
1 16 713
1 17 603
1 18 796
1 19 441
1 20 721
1 21 421
1 22 397
1 23 706
1 24 612
1 25 253
1 26 702
1 27 247
1 28 388
1 29 134
1 30 324
1 31 819
1 32 499
1 33 591
1 34 548
1 35 354
1 36 692
1 37 848
1 38 680
1 39 759
1 40 1089
1 41 172
1 42 653
1 43 244
1 44 802
1 45 497
1 46 724
1 47 653
1 48 741
1 49 84
1 50 433
2 3 248
2 4 382
2 5 782
2 6 427
2 7 697
2 8 573
2 9 285
2 10 524
2 11 370
2 12 393
2 13 336
2 14 654
2 15 250
2 16 816
2 17 272
2 18 97
2 19 495
2 20 426
2 21 367
2 22 368
2 23 481
2 24 283
2 25 463
2 26 56
2 27 586
2 28 369
2 29 627
2 30 656
2 31 546
2 32 389
2 33 129
2 34 597
2 35 357
2 36 839
2 37 386
2 38 186
2 39 51
2 40 612
2 41 623
2 42 817
2 43 822
2 44 183
2 45 247
2 46 137
2 47 343
2 48 465
2 49 772
2 50 278
3 4 579
3 5 956
3 6 661
3 7 862
3 8 780
3 9 526
3 10 740
3 11 341
3 12 624
3 13 230
3 14 819
3 15 98
3 16 1052
3 17 214
3 18 292
3 19 458
3 20 674
3 21 564
3 22 555
3 23 729
3 24 211
3 25 560
3 26 304
3 27 752
3 28 422
3 29 760
3 30 649
3 31 794
3 32 612
3 33 338
3 34 827
3 35 490
3 36 1072
3 37 624
3 38 434
3 39 219
3 40 828
3 41 769
3 42 1047
3 43 850
3 44 73
3 45 447
3 46 383
3 47 214
3 48 714
3 49 884
3 50 420
4 5 401
4 6 482
4 7 323
4 8 675
4 9 377
4 10 170
4 11 426
4 12 474
4 13 506
4 14 280
4 15 618
4 16 507
4 17 446
4 18 439
4 19 486
4 20 318
4 21 15
4 22 37
4 23 320
4 24 460
4 25 253
4 26 348
4 27 216
4 28 310
4 29 293
4 30 537
4 31 434
4 32 97
4 33 255
4 34 275
4 35 166
4 36 515
4 37 433
4 38 282
4 39 434
4 40 678
4 41 273
4 42 484
4 43 610
4 44 538
4 45 136
4 46 339
4 47 532
4 48 346
4 49 448
4 50 183
5 6 801
5 7 98
5 8 983
5 9 740
5 10 314
5 11 709
5 12 808
5 13 825
5 14 137
5 15 1008
5 16 432
5 17 782
5 18 841
5 19 699
5 20 604
5 21 415
5 22 413
5 23 563
5 24 794
5 25 438
5 26 750
5 27 204
5 28 580
5 29 238
5 30 628
5 31 659
5 32 431
5 33 653
5 34 345
5 35 468
5 36 401
5 37 762
5 38 674
5 39 834
5 40 963
5 41 208
5 42 363
5 43 553
5 44 925
5 45 534
5 46 736
5 47 854
5 48 608
5 49 261
5 50 536
6 7 758
6 8 193
6 9 146
6 10 488
6 11 754
6 12 38
6 13 755
6 14 723
6 15 624
6 16 600
6 17 687
6 18 368
6 19 864
6 20 198
6 21 476
6 22 503
6 23 249
6 24 699
6 25 711
6 26 376
6 27 674
6 28 696
6 29 770
6 30 978
6 31 210
6 32 399
6 33 427
6 34 476
6 35 597
6 36 641
6 37 50
6 38 277
6 39 442
6 40 203
6 41 743
6 42 639
6 43 1086
6 44 588
6 45 440
6 46 293
6 47 766
6 48 203
6 49 922
6 50 548
7 8 945
7 9 681
7 10 272
7 11 611
7 12 760
7 13 726
7 14 43
7 15 918
7 16 472
7 17 685
7 18 762
7 19 602
7 20 564
7 21 336
7 22 330
7 23 532
7 24 697
7 25 340
7 26 669
7 27 111
7 28 481
7 29 144
7 30 540
7 31 637
7 32 369
7 33 568
7 34 335
7 35 373
7 36 449
7 37 715
7 38 603
7 39 749
7 40 932
7 41 110
7 42 410
7 43 487
7 44 834
7 45 451
7 46 662
7 47 756
7 48 574
7 49 210
7 50 443
8 9 322
8 10 673
8 11 925
8 12 206
8 13 909
8 14 911
8 15 723
8 16 729
8 17 844
8 18 494
8 19 1040
8 20 380
8 21 670
8 22 696
8 23 420
8 24 855
8 25 902
8 26 529
8 27 865
8 28 878
8 29 962
8 30 1165
8 31 341
8 32 591
8 33 600
8 34 646
8 35 787
8 36 774
8 37 242
8 38 454
8 39 574
8 40 65
8 41 935
8 42 780
8 43 1278
8 44 707
8 45 628
8 46 453
8 47 917
8 48 374
8 49 1115
8 50 733
9 10 429
9 11 609
9 12 118
9 13 609
9 14 642
9 15 501
9 16 623
9 17 540
9 18 240
9 19 720
9 20 189
9 21 368
9 22 391
9 23 254
9 24 553
9 25 585
9 26 232
9 27 586
9 28 556
9 29 670
9 30 843
9 31 280
9 32 311
9 33 282
9 34 450
9 35 468
9 36 657
9 37 101
9 38 133
9 39 306
9 40 345
9 41 649
9 42 647
9 43 963
9 44 455
9 45 308
9 46 149
9 47 620
9 48 220
9 49 825
9 50 411
10 11 593
10 12 494
10 13 676
10 14 242
10 15 770
10 16 339
10 17 616
10 18 562
10 19 640
10 20 293
10 21 183
10 22 204
10 23 260
10 24 630
10 25 382
10 26 481
10 27 210
10 28 471
10 29 323
10 30 661
10 31 368
10 32 136
10 33 405
10 34 111
10 35 326
10 36 345
10 37 448
10 38 381
10 39 574
10 40 659
10 41 286
10 42 314
10 43 687
10 44 693
10 45 293
10 46 447
10 47 702
10 48 302
10 49 460
10 50 353
11 12 727
11 13 128
11 14 573
11 15 432
11 16 932
11 17 128
11 18 467
11 19 127
11 20 672
11 21 416
11 22 390
11 23 703
11 24 130
11 25 272
11 26 400
11 27 514
11 28 130
11 29 482
11 30 310
11 31 803
11 32 506
11 33 327
11 34 701
11 35 268
11 36 937
11 37 706
11 38 477
11 39 395
11 40 954
11 41 503
11 42 904
11 43 509
11 44 360
11 45 350
11 46 472
11 47 156
11 48 710
11 49 577
11 50 249
12 13 723
12 14 724
12 15 585
12 16 626
12 17 656
12 18 331
12 19 839
12 20 210
12 21 467
12 22 493
12 23 267
12 24 668
12 25 696
12 26 343
12 27 672
12 28 673
12 29 765
12 30 959
12 31 241
12 32 396
12 33 400
12 34 490
12 35 580
12 36 666
12 37 45
12 38 251
12 39 406
12 40 227
12 41 740
12 42 662
12 43 1072
12 44 551
12 45 421
12 46 261
12 47 734
12 48 222
12 49 918
12 50 527
13 14 687
13 15 327
13 16 1012
13 17 69
13 18 424
13 19 230
13 20 705
13 21 493
13 22 472
13 23 746
13 24 55
13 25 392
13 26 380
13 27 624
13 28 246
13 29 603
13 30 422
13 31 836
13 32 571
13 33 340
13 34 779
13 35 365
13 36 1021
13 37 709
13 38 484
13 39 344
13 40 947
13 41 622
13 42 990
13 43 630
13 44 266
13 45 403
13 46 461
13 47 29
13 48 745
13 49 704
13 50 322
14 15 874
14 16 472
14 17 644
14 18 718
14 19 570
14 20 531
14 21 293
14 22 286
14 23 503
14 24 656
14 25 304
14 26 626
14 27 68
14 28 443
14 29 123
14 30 520
14 31 610
14 32 331
14 33 524
14 34 315
14 35 331
14 36 454
14 37 679
14 38 561
14 39 705
14 40 900
14 41 83
14 42 414
14 43 485
14 44 790
14 45 407
14 46 620
14 47 716
14 48 543
14 49 223
14 50 400
15 16 1066
15 17 304
15 18 260
15 19 553
15 20 666
15 21 603
15 22 598
15 23 725
15 24 303
15 25 633
15 26 302
15 27 806
15 28 501
15 29 826
15 30 742
15 31 778
15 32 637
15 33 365
15 34 848
15 35 551
15 36 1090
15 37 593
15 38 430
15 39 206
15 40 776
15 41 831
15 42 1068
15 43 940
15 44 84
15 45 483
15 46 370
15 47 312
15 48 704
15 49 957
15 50 476
16 17 950
16 18 827
16 19 976
16 20 435
16 21 519
16 22 542
16 23 370
16 24 964
16 25 711
16 26 764
16 27 487
16 28 809
16 29 592
16 30 975
16 31 394
16 32 445
16 33 715
16 34 232
16 35 665
16 36 47
16 37 585
16 38 641
16 39 861
16 40 686
16 41 550
16 42 73
16 43 957
16 44 996
16 45 616
16 46 707
16 47 1037
16 48 409
16 49 680
16 50 690
17 18 364
17 19 252
17 20 637
17 21 433
17 22 413
17 23 678
17 24 14
17 25 360
17 26 314
17 27 579
17 28 215
17 29 569
17 30 438
17 31 767
17 32 507
17 33 271
17 34 717
17 35 316
17 36 961
17 37 641
17 38 415
17 39 286
17 40 880
17 41 583
17 42 931
17 43 636
17 44 232
17 45 337
17 46 394
17 47 88
17 48 676
17 49 681
17 50 264
18 19 593
18 20 410
18 21 425
18 22 432
18 23 471
18 24 373
18 25 552
18 26 94
18 27 652
18 28 465
18 29 704
18 30 753
18 31 518
18 32 425
18 33 205
18 34 621
18 35 442
18 36 854
18 37 334
18 38 187
18 39 81
18 40 538
18 41 696
18 42 837
18 43 916
18 44 220
18 45 312
18 46 120
18 47 427
18 48 447
18 49 853
18 50 364
19 20 764
19 21 478
19 22 448
19 23 787
19 24 250
19 25 271
19 26 522
19 27 520
19 28 179
19 29 461
19 30 192
19 31 893
19 32 576
19 33 439
19 34 752
19 35 319
19 36 975
19 37 814
19 38 587
19 39 522
19 40 1066
19 41 491
19 42 939
19 43 403
19 44 484
19 45 439
19 46 589
19 47 253
19 48 800
19 49 525
19 50 329
20 21 317
20 22 347
20 23 64
20 24 651
20 25 566
20 26 369
20 27 487
20 28 586
20 29 590
20 30 847
20 31 131
20 32 223
20 33 366
20 34 280
20 35 462
20 36 470
20 37 164
20 38 239
20 39 461
20 40 370
20 41 560
20 42 461
20 43 928
20 44 608
20 45 324
20 46 296
20 47 724
20 48 40
20 49 739
20 50 434
21 22 31
21 23 322
21 24 447
21 25 251
21 26 334
21 27 229
21 28 301
21 29 302
21 30 535
21 31 435
21 32 100
21 33 240
21 34 286
21 35 159
21 36 528
21 37 427
21 38 270
21 39 419
21 40 674
21 41 283
21 42 498
21 43 612
21 44 523
21 45 121
21 46 326
21 47 519
21 48 346
21 49 457
21 50 171
22 23 353
22 24 428
22 25 220
22 26 339
22 27 219
22 28 272
22 29 283
22 30 503
22 31 466
22 32 131
22 33 239
22 34 311
22 35 129
22 36 549
22 37 454
22 38 286
22 39 420
22 40 702
22 41 268
22 42 518
22 43 584
22 44 516
22 45 121
22 46 339
22 47 498
22 48 377
22 49 437
22 50 149
23 24 692
23 25 573
23 26 425
23 27 465
23 28 608
23 29 573
23 30 857
23 31 114
23 32 223
23 33 410
23 34 227
23 35 477
23 36 405
23 37 222
23 38 295
23 39 519
23 40 400
23 41 540
23 42 398
23 43 923
23 44 664
23 45 353
23 46 355
23 47 766
23 48 46
23 49 717
23 50 459
24 25 370
24 26 326
24 27 592
24 28 225
24 29 579
24 30 439
24 31 781
24 32 522
24 33 285
24 34 732
24 35 329
24 36 975
24 37 654
24 38 429
24 39 294
24 40 892
24 41 595
24 42 945
24 43 639
24 44 233
24 45 352
24 46 406
24 47 73
24 48 691
24 49 690
24 50 278
25 26 460
25 27 250
25 28 146
25 29 210
25 30 284
25 31 686
25 32 350
25 33 350
25 34 494
25 35 117
25 36 707
25 37 661
25 38 461
25 39 509
25 40 913
25 41 231
25 42 670
25 43 378
25 44 549
25 45 277
25 46 494
25 47 422
25 48 597
25 49 324
25 50 188
26 27 559
26 28 382
26 29 609
26 30 673
26 31 490
26 32 344
26 33 110
26 34 549
26 35 348
26 36 788
26 37 333
26 38 130
26 39 96
26 40 566
26 41 602
26 42 768
26 43 828
26 44 238
26 45 218
26 46 83
26 47 390
26 48 409
26 49 758
26 50 271
27 28 383
27 29 113
27 30 490
27 31 576
27 32 276
27 33 456
27 34 302
27 35 264
27 36 474
27 37 629
27 38 499
27 39 637
27 40 858
27 41 75
27 42 436
27 43 483
27 44 722
27 45 340
27 46 556
27 47 653
27 48 504
27 49 252
27 50 332
28 29 356
28 30 291
28 31 715
28 32 397
28 33 283
28 34 581
28 35 144
28 36 812
28 37 645
28 38 423
28 39 407
28 40 899
28 41 375
28 42 778
28 43 454
28 44 420
28 45 262
28 46 436
28 47 276
28 48 622
28 49 465
28 50 152
29 30 397
29 31 685
29 32 371
29 33 500
29 34 416
29 35 275
29 36 576
29 37 723
29 38 569
29 39 677
29 40 959
29 41 41
29 42 537
29 43 370
29 44 741
29 45 394
29 46 620
29 47 632
29 48 609
29 49 155
29 50 353
30 31 970
30 32 635
30 33 575
30 34 770
30 35 385
30 36 965
30 37 928
30 38 712
30 39 689
30 40 1182
30 41 437
30 42 926
30 43 214
30 44 670
30 45 538
30 46 728
30 47 445
30 48 879
30 49 404
30 50 431
31 32 336
31 33 496
31 34 314
31 35 587
31 36 437
31 37 207
31 38 362
31 39 577
31 40 309
31 41 651
31 42 440
31 43 1037
31 44 726
31 45 455
31 46 411
31 47 854
31 48 93
31 49 827
31 50 564
32 33 274
32 34 215
32 35 258
32 36 460
32 37 352
32 38 246
32 39 438
32 40 589
32 41 344
32 42 435
32 43 704
32 44 561
32 45 171
32 46 312
32 47 595
32 48 249
32 49 523
32 50 257
33 34 488
33 35 237
33 36 733
33 37 379
33 38 150
33 39 181
33 40 628
33 41 495
33 42 709
33 43 721
33 44 287
33 45 119
33 46 153
33 47 357
33 48 406
33 49 648
33 50 161
34 35 436
34 36 245
34 37 444
34 38 434
34 39 645
34 40 622
34 41 376
34 42 220
34 43 785
34 44 774
34 45 385
34 46 502
34 47 804
34 48 273
34 49 539
34 50 457
35 36 668
35 37 546
35 38 344
35 39 406
35 40 800
35 41 279
35 42 635
35 43 496
35 44 467
35 45 159
35 46 377
35 47 394
35 48 495
35 49 415
35 50 79
36 37 624
36 38 667
36 39 885
36 40 732
36 41 534
36 42 39
36 43 937
36 44 1018
36 45 630
36 46 734
36 47 1047
36 48 446
36 49 655
36 50 698
37 38 228
37 39 405
37 40 254
37 41 697
37 42 619
37 43 1036
37 44 552
37 45 389
37 46 250
37 47 721
37 48 178
37 49 876
37 50 497
38 39 224
38 40 479
38 41 554
38 42 649
38 43 840
38 44 369
38 45 185
38 46 67
38 47 499
38 48 279
38 49 724
38 50 281
39 40 618
39 41 674
39 42 864
39 43 862
39 44 149
39 45 299
39 46 165
39 47 347
39 48 500
39 49 821
39 50 326
40 41 930
40 42 740
40 43 1286
40 44 755
40 45 644
40 46 486
40 47 956
40 48 357
40 49 1109
40 50 752
41 42 495
41 43 411
41 44 746
41 45 384
41 46 607
41 47 651
41 48 577
41 49 179
41 50 355
42 43 897
42 44 994
42 45 603
42 46 717
42 47 1016
42 48 440
42 49 616
42 50 668
43 44 863
43 45 655
43 46 870
43 47 654
43 48 953
43 49 293
43 50 562
44 45 403
44 46 314
44 47 257
44 48 647
44 49 873
44 50 392
45 46 227
45 47 425
45 48 361
45 49 546
45 50 110
46 47 472
46 48 334
46 49 773
46 50 307
47 48 764
47 49 733
47 50 348
48 49 756
48 50 470
49 50 494
